c PMC file for PBN ISCAS/c1908_distill_ISCAS/c1908_miter written by probABC
p cnf 1069 2658
c ind 1 2 3 4 5 6 7 8 9 10 11 12 13 14 15 16 17 18 19 20 21 22 23 24 25 26 27 28 29 30 31 32 33 870 871 872 873 874 875 876 877 878 879 880 881 882 883 884 885 886 887 888 889 890 891 892 893 894 895 896 897 898 899 900 901 902 903 904 905 906 907 908 909 910 911 912 913 914 915 916 917 918 919 920 921 922 923 924 925 926 927 928 929 930 931 932 933 934 935 936 937 938 939 940 941 942 943 944 945 946 947 948 949 950 951 952 953 954 955 956 957 958 959 960 961 962 963 964 965 966 967 968 969 970 971 972 973 974 975 976 977 978 979 980 981 982 983 984 985 986 987 988 989 990 991 992 993 994 995 996 997 998 999 1000 1001 1002 1003 1004 1005 1006 1007 1008 1009 1010 1011 1012 1013 1014 1015 1016 1017 1018 1019 0
85 29 -33 0
-85 -29 0
-85 33 0
86 -2 3 0
-86 2 0
-86 -3 0
87 2 -3 0
-87 -2 0
-87 3 0
88 86 87 0
-88 -86 0
-88 -87 0
89 -1 88 0
-89 1 0
-89 -88 0
90 1 -88 0
-90 -1 0
-90 88 0
91 89 90 0
-91 -89 0
-91 -90 0
92 6 7 0
-92 -6 0
-92 -7 0
93 -6 -7 0
-93 6 0
-93 7 0
94 92 93 0
-94 -92 0
-94 -93 0
95 -5 -94 0
-95 5 0
-95 94 0
96 5 94 0
-96 -5 0
-96 -94 0
97 95 96 0
-97 -95 0
-97 -96 0
98 -4 8 0
-98 4 0
-98 -8 0
99 4 -8 0
-99 -4 0
-99 8 0
100 98 99 0
-100 -98 0
-100 -99 0
101 -97 -100 0
-101 97 0
-101 100 0
102 97 100 0
-102 -97 0
-102 -100 0
103 101 102 0
-103 -101 0
-103 -102 0
104 -91 -103 0
-104 91 0
-104 103 0
105 91 103 0
-105 -91 0
-105 -103 0
106 104 105 0
-106 -104 0
-106 -105 0
107 85 -106 0
-107 -85 0
-107 106 0
108 -21 -29 0
-108 21 0
-108 29 0
109 -33 108 0
-109 33 0
-109 -108 0
110 -23 -24 0
-110 23 0
-110 24 0
111 -31 110 0
-111 31 0
-111 -110 0
112 -85 -111 0
-112 85 0
-112 111 0
113 -32 33 0
-113 32 0
-113 -33 0
114 110 -113 0
-114 -110 0
-114 113 0
115 112 114 0
-115 -112 0
-115 -114 0
116 -6 8 0
-116 6 0
-116 -8 0
117 6 -8 0
-117 -6 0
-117 8 0
118 116 117 0
-118 -116 0
-118 -117 0
119 -3 118 0
-119 3 0
-119 -118 0
120 3 -118 0
-120 -3 0
-120 118 0
121 119 120 0
-121 -119 0
-121 -120 0
122 -19 -23 0
-122 19 0
-122 23 0
123 33 -122 0
-123 -33 0
-123 122 0
124 10 15 0
-124 -10 0
-124 -15 0
125 -10 -15 0
-125 10 0
-125 15 0
126 124 125 0
-126 -124 0
-126 -125 0
127 -12 126 0
-127 12 0
-127 -126 0
128 12 -126 0
-128 -12 0
-128 126 0
129 127 128 0
-129 -127 0
-129 -128 0
130 -123 -129 0
-130 123 0
-130 129 0
131 123 129 0
-131 -123 0
-131 -129 0
132 130 131 0
-132 -130 0
-132 -131 0
133 -121 -132 0
-133 121 0
-133 132 0
134 121 132 0
-134 -121 0
-134 -132 0
135 133 134 0
-135 -133 0
-135 -134 0
136 31 135 0
-136 -31 0
-136 -135 0
137 -28 136 0
-137 28 0
-137 -136 0
138 28 -136 0
-138 -28 0
-138 136 0
139 137 138 0
-139 -137 0
-139 -138 0
140 5 8 0
-140 -5 0
-140 -8 0
141 -5 -8 0
-141 5 0
-141 8 0
142 140 141 0
-142 -140 0
-142 -141 0
143 -2 -142 0
-143 2 0
-143 142 0
144 2 142 0
-144 -2 0
-144 -142 0
145 143 144 0
-145 -143 0
-145 -144 0
146 -18 24 0
-146 18 0
-146 -24 0
147 33 -146 0
-147 -33 0
-147 146 0
148 9 14 0
-148 -9 0
-148 -14 0
149 -9 -14 0
-149 9 0
-149 14 0
150 148 149 0
-150 -148 0
-150 -149 0
151 -16 150 0
-151 16 0
-151 -150 0
152 16 -150 0
-152 -16 0
-152 150 0
153 151 152 0
-153 -151 0
-153 -152 0
154 -147 -153 0
-154 147 0
-154 153 0
155 147 153 0
-155 -147 0
-155 -153 0
156 154 155 0
-156 -154 0
-156 -155 0
157 -11 15 0
-157 11 0
-157 -15 0
158 11 -15 0
-158 -11 0
-158 15 0
159 157 158 0
-159 -157 0
-159 -158 0
160 -156 -159 0
-160 156 0
-160 159 0
161 156 159 0
-161 -156 0
-161 -159 0
162 160 161 0
-162 -160 0
-162 -161 0
163 -145 -162 0
-163 145 0
-163 162 0
164 145 162 0
-164 -145 0
-164 -162 0
165 163 164 0
-165 -163 0
-165 -164 0
166 31 -165 0
-166 -31 0
-166 165 0
167 -27 166 0
-167 27 0
-167 -166 0
168 27 -166 0
-168 -27 0
-168 166 0
169 167 168 0
-169 -167 0
-169 -168 0
170 -139 169 0
-170 139 0
-170 -169 0
171 115 -170 0
-171 -115 0
-171 170 0
172 -23 31 0
-172 23 0
-172 -31 0
173 -19 172 0
-173 19 0
-173 -172 0
174 -20 -23 0
-174 20 0
-174 23 0
175 33 -174 0
-175 -33 0
-175 174 0
176 13 175 0
-176 -13 0
-176 -175 0
177 -13 -175 0
-177 13 0
-177 175 0
178 176 177 0
-178 -176 0
-178 -177 0
179 7 10 0
-179 -7 0
-179 -10 0
180 -7 -10 0
-180 7 0
-180 10 0
181 179 180 0
-181 -179 0
-181 -180 0
182 -4 153 0
-182 4 0
-182 -153 0
183 4 -153 0
-183 -4 0
-183 153 0
184 182 183 0
-184 -182 0
-184 -183 0
185 -181 -184 0
-185 181 0
-185 184 0
186 181 184 0
-186 -181 0
-186 -184 0
187 185 186 0
-187 -185 0
-187 -186 0
188 -178 187 0
-188 178 0
-188 -187 0
189 178 -187 0
-189 -178 0
-189 187 0
190 188 189 0
-190 -188 0
-190 -189 0
191 31 190 0
-191 -31 0
-191 -190 0
192 -173 191 0
-192 173 0
-192 -191 0
193 173 -191 0
-193 -173 0
-193 191 0
194 192 193 0
-194 -192 0
-194 -193 0
195 -17 24 0
-195 17 0
-195 -24 0
196 33 -195 0
-196 -33 0
-196 195 0
197 1 196 0
-197 -1 0
-197 -196 0
198 -1 -196 0
-198 1 0
-198 196 0
199 197 198 0
-199 -197 0
-199 -198 0
200 15 16 0
-200 -15 0
-200 -16 0
201 -15 -16 0
-201 15 0
-201 16 0
202 200 201 0
-202 -200 0
-202 -201 0
203 -10 -202 0
-203 10 0
-203 202 0
204 10 202 0
-204 -10 0
-204 -202 0
205 203 204 0
-205 -203 0
-205 -204 0
206 12 13 0
-206 -12 0
-206 -13 0
207 -12 -13 0
-207 12 0
-207 13 0
208 206 207 0
-208 -206 0
-208 -207 0
209 -11 -208 0
-209 11 0
-209 208 0
210 11 208 0
-210 -11 0
-210 -208 0
211 209 210 0
-211 -209 0
-211 -210 0
212 205 211 0
-212 -205 0
-212 -211 0
213 -205 -211 0
-213 205 0
-213 211 0
214 212 213 0
-214 -212 0
-214 -213 0
215 -199 214 0
-215 199 0
-215 -214 0
216 199 -214 0
-216 -199 0
-216 214 0
217 215 216 0
-217 -215 0
-217 -216 0
218 -97 -217 0
-218 97 0
-218 217 0
219 97 217 0
-219 -97 0
-219 -217 0
220 218 219 0
-220 -218 0
-220 -219 0
221 31 220 0
-221 -31 0
-221 -220 0
222 -26 221 0
-222 26 0
-222 -221 0
223 26 -221 0
-223 -26 0
-223 221 0
224 222 223 0
-224 -222 0
-224 -223 0
225 -194 224 0
-225 194 0
-225 -224 0
226 -22 33 0
-226 22 0
-226 -33 0
227 -4 14 0
-227 4 0
-227 -14 0
228 4 -14 0
-228 -4 0
-228 14 0
229 227 228 0
-229 -227 0
-229 -228 0
230 -226 -229 0
-230 226 0
-230 229 0
231 226 229 0
-231 -226 0
-231 -229 0
232 230 231 0
-232 -230 0
-232 -231 0
233 91 -214 0
-233 -91 0
-233 214 0
234 -91 214 0
-234 91 0
-234 -214 0
235 233 234 0
-235 -233 0
-235 -234 0
236 -232 -235 0
-236 232 0
-236 235 0
237 232 235 0
-237 -232 0
-237 -235 0
238 236 237 0
-238 -236 0
-238 -237 0
239 31 -238 0
-239 -31 0
-239 238 0
240 -25 239 0
-240 25 0
-240 -239 0
241 25 -239 0
-241 -25 0
-241 239 0
242 240 241 0
-242 -240 0
-242 -241 0
243 -20 172 0
-243 20 0
-243 -172 0
244 24 31 0
-244 -24 0
-244 -31 0
245 -18 244 0
-245 18 0
-245 -244 0
246 -17 244 0
-246 17 0
-246 -244 0
247 -21 33 0
-247 21 0
-247 -33 0
248 -9 205 0
-248 9 0
-248 -205 0
249 9 -205 0
-249 -9 0
-249 205 0
250 248 249 0
-250 -248 0
-250 -249 0
251 -247 -250 0
-251 247 0
-251 250 0
252 247 250 0
-252 -247 0
-252 -250 0
253 251 252 0
-253 -251 0
-253 -252 0
254 -106 -253 0
-254 106 0
-254 253 0
255 106 253 0
-255 -106 0
-255 -253 0
256 254 255 0
-256 -254 0
-256 -255 0
257 31 -256 0
-257 -31 0
-257 256 0
258 246 -257 0
-258 -246 0
-258 257 0
259 -246 257 0
-259 246 0
-259 -257 0
260 258 259 0
-260 -258 0
-260 -259 0
261 245 260 0
-261 -245 0
-261 -260 0
262 -242 243 0
-262 242 0
-262 -243 0
263 -261 -262 0
-263 261 0
-263 262 0
264 -225 -263 0
-264 225 0
-264 263 0
265 -171 -264 0
-265 171 0
-265 264 0
266 139 -169 0
-266 -139 0
-266 169 0
267 115 -266 0
-267 -115 0
-267 266 0
268 -264 -267 0
-268 264 0
-268 267 0
269 194 -224 0
-269 -194 0
-269 224 0
270 -139 -169 0
-270 139 0
-270 169 0
271 115 -270 0
-271 -115 0
-271 270 0
272 242 243 0
-272 -242 0
-272 -243 0
273 -261 -272 0
-273 261 0
-273 272 0
274 -269 -271 0
-274 269 0
-274 271 0
275 -273 -274 0
-275 273 0
-275 274 0
276 194 224 0
-276 -194 0
-276 -224 0
277 -263 -276 0
-277 263 0
-277 276 0
278 -271 -277 0
-278 271 0
-278 277 0
279 -225 -273 0
-279 225 0
-279 273 0
280 -271 -279 0
-280 271 0
-280 279 0
281 -194 -224 0
-281 194 0
-281 224 0
282 -273 -281 0
-282 273 0
-282 281 0
283 -171 -282 0
-283 171 0
-283 282 0
284 -267 -282 0
-284 267 0
-284 282 0
285 139 169 0
-285 -139 0
-285 -169 0
286 115 -281 0
-286 -115 0
-286 281 0
287 -285 -286 0
-287 285 0
-287 286 0
288 -263 -287 0
-288 263 0
-288 287 0
289 265 268 0
-289 -265 0
-289 -268 0
290 275 278 0
-290 -275 0
-290 -278 0
291 280 283 0
-291 -280 0
-291 -283 0
292 284 288 0
-292 -284 0
-292 -288 0
293 -291 -292 0
-293 291 0
-293 292 0
294 -289 -290 0
-294 289 0
-294 290 0
295 -293 -294 0
-295 293 0
-295 294 0
296 33 295 0
-296 -33 0
-296 -295 0
297 109 296 0
-297 -109 0
-297 -296 0
298 -107 297 0
-298 107 0
-298 -297 0
299 107 -297 0
-299 -107 0
-299 297 0
300 298 299 0
-300 -298 0
-300 -299 0
301 57 114 0
-301 -57 0
-301 -114 0
302 -57 -114 0
-302 57 0
-302 114 0
303 301 302 0
-303 -301 0
-303 -302 0
304 112 303 0
-304 -112 0
-304 -303 0
305 -58 304 0
-305 58 0
-305 -304 0
306 58 -304 0
-306 -58 0
-306 304 0
307 305 306 0
-307 -305 0
-307 -306 0
308 50 -116 0
-308 -50 0
-308 116 0
309 50 117 0
-309 -50 0
-309 -117 0
310 116 309 0
-310 -116 0
-310 -309 0
311 308 310 0
-311 -308 0
-311 -310 0
312 3 -311 0
-312 -3 0
-312 311 0
313 52 312 0
-313 -52 0
-313 -312 0
314 -52 -312 0
-314 52 0
-314 312 0
315 313 314 0
-315 -313 0
-315 -314 0
316 -3 311 0
-316 3 0
-316 -311 0
317 51 316 0
-317 -51 0
-317 -316 0
318 -51 -316 0
-318 51 0
-318 316 0
319 317 318 0
-319 -317 0
-319 -318 0
320 315 319 0
-320 -315 0
-320 -319 0
321 -132 -320 0
-321 132 0
-321 320 0
322 132 320 0
-322 -132 0
-322 -320 0
323 321 322 0
-323 -321 0
-323 -322 0
324 31 323 0
-324 -31 0
-324 -323 0
325 -28 324 0
-325 28 0
-325 -324 0
326 28 -324 0
-326 -28 0
-326 324 0
327 325 326 0
-327 -325 0
-327 -326 0
328 -27 55 0
-328 27 0
-328 -55 0
329 56 -328 0
-329 -56 0
-329 328 0
330 -56 328 0
-330 56 0
-330 -328 0
331 329 330 0
-331 -329 0
-331 -330 0
332 43 44 0
-332 -43 0
-332 -44 0
333 -43 -44 0
-333 43 0
-333 44 0
334 332 333 0
-334 -332 0
-334 -333 0
335 162 334 0
-335 -162 0
-335 -334 0
336 -162 -334 0
-336 162 0
-336 334 0
337 335 336 0
-337 -335 0
-337 -336 0
338 -53 145 0
-338 53 0
-338 -145 0
339 53 -145 0
-339 -53 0
-339 145 0
340 338 339 0
-340 -338 0
-340 -339 0
341 -54 -340 0
-341 54 0
-341 340 0
342 337 341 0
-342 -337 0
-342 -341 0
343 54 340 0
-343 -54 0
-343 -340 0
344 342 -343 0
-344 -342 0
-344 343 0
345 -342 343 0
-345 342 0
-345 -343 0
346 344 345 0
-346 -344 0
-346 -345 0
347 31 -346 0
-347 -31 0
-347 346 0
348 27 -55 0
-348 -27 0
-348 55 0
349 347 348 0
-349 -347 0
-349 -348 0
350 -331 -349 0
-350 331 0
-350 349 0
351 331 349 0
-351 -331 0
-351 -349 0
352 350 351 0
-352 -350 0
-352 -351 0
353 327 -352 0
-353 -327 0
-353 352 0
354 42 211 0
-354 -42 0
-354 -211 0
355 -42 209 0
-355 42 0
-355 -209 0
356 354 355 0
-356 -354 0
-356 -355 0
357 -205 356 0
-357 205 0
-357 -356 0
358 205 -356 0
-358 -205 0
-358 356 0
359 357 358 0
-359 -357 0
-359 -358 0
360 -40 359 0
-360 40 0
-360 -359 0
361 40 -359 0
-361 -40 0
-361 359 0
362 360 361 0
-362 -360 0
-362 -361 0
363 -232 -362 0
-363 232 0
-363 362 0
364 232 362 0
-364 -232 0
-364 -362 0
365 363 364 0
-365 -363 0
-365 -364 0
366 35 86 0
-366 -35 0
-366 -86 0
367 87 -366 0
-367 -87 0
-367 366 0
368 -35 -86 0
-368 35 0
-368 86 0
369 367 368 0
-369 -367 0
-369 -368 0
370 -1 369 0
-370 1 0
-370 -369 0
371 1 -369 0
-371 -1 0
-371 369 0
372 370 371 0
-372 -370 0
-372 -371 0
373 -41 -205 0
-373 41 0
-373 205 0
374 -372 -373 0
-374 372 0
-374 373 0
375 41 372 0
-375 -41 0
-375 -372 0
376 374 375 0
-376 -374 0
-376 -375 0
377 -365 376 0
-377 365 0
-377 -376 0
378 365 -376 0
-378 -365 0
-378 376 0
379 377 378 0
-379 -377 0
-379 -378 0
380 31 379 0
-380 -31 0
-380 -379 0
381 -25 380 0
-381 25 0
-381 -380 0
382 25 -380 0
-382 -25 0
-382 380 0
383 381 382 0
-383 -381 0
-383 -382 0
384 39 243 0
-384 -39 0
-384 -243 0
385 -39 -243 0
-385 39 0
-385 243 0
386 384 385 0
-386 -384 0
-386 -385 0
387 -383 386 0
-387 383 0
-387 -386 0
388 -103 -372 0
-388 103 0
-388 372 0
389 103 372 0
-389 -103 0
-389 -372 0
390 388 389 0
-390 -388 0
-390 -389 0
391 -34 390 0
-391 34 0
-391 -390 0
392 34 -390 0
-392 -34 0
-392 390 0
393 391 392 0
-393 -391 0
-393 -392 0
394 -253 -393 0
-394 253 0
-394 393 0
395 253 393 0
-395 -253 0
-395 -393 0
396 394 395 0
-396 -394 0
-396 -395 0
397 31 -396 0
-397 -31 0
-397 396 0
398 36 246 0
-398 -36 0
-398 -246 0
399 -36 -246 0
-399 36 0
-399 246 0
400 398 399 0
-400 -398 0
-400 -399 0
401 -397 400 0
-401 397 0
-401 -400 0
402 38 401 0
-402 -38 0
-402 -401 0
403 -38 -401 0
-403 38 0
-403 401 0
404 402 403 0
-404 -402 0
-404 -403 0
405 397 -400 0
-405 -397 0
-405 400 0
406 37 405 0
-406 -37 0
-406 -405 0
407 -37 -405 0
-407 37 0
-407 405 0
408 406 407 0
-408 -406 0
-408 -407 0
409 404 408 0
-409 -404 0
-409 -408 0
410 245 409 0
-410 -245 0
-410 -409 0
411 -387 -410 0
-411 387 0
-411 410 0
412 46 177 0
-412 -46 0
-412 -177 0
413 -46 -177 0
-413 46 0
-413 177 0
414 412 413 0
-414 -412 0
-414 -413 0
415 -334 414 0
-415 334 0
-415 -414 0
416 334 -414 0
-416 -334 0
-416 414 0
417 415 416 0
-417 -415 0
-417 -416 0
418 45 176 0
-418 -45 0
-418 -176 0
419 187 -418 0
-419 -187 0
-419 418 0
420 -187 418 0
-420 187 0
-420 -418 0
421 419 420 0
-421 -419 0
-421 -420 0
422 -417 -421 0
-422 417 0
-422 421 0
423 417 421 0
-423 -417 0
-423 -421 0
424 422 423 0
-424 -422 0
-424 -423 0
425 31 -424 0
-425 -31 0
-425 424 0
426 -47 -425 0
-426 47 0
-426 425 0
427 -173 426 0
-427 173 0
-427 -426 0
428 47 425 0
-428 -47 0
-428 -425 0
429 427 -428 0
-429 -427 0
-429 428 0
430 -427 428 0
-430 427 0
-430 -428 0
431 429 430 0
-431 -429 0
-431 -430 0
432 -48 -359 0
-432 48 0
-432 359 0
433 48 359 0
-433 -48 0
-433 -359 0
434 432 433 0
-434 -432 0
-434 -433 0
435 -97 -434 0
-435 97 0
-435 434 0
436 97 434 0
-436 -97 0
-436 -434 0
437 435 436 0
-437 -435 0
-437 -436 0
438 -199 437 0
-438 199 0
-438 -437 0
439 199 -437 0
-439 -199 0
-439 437 0
440 31 438 0
-440 -31 0
-440 -438 0
441 439 -440 0
-441 -439 0
-441 440 0
442 26 -49 0
-442 -26 0
-442 49 0
443 441 442 0
-443 -441 0
-443 -442 0
444 -26 49 0
-444 26 0
-444 -49 0
445 443 -444 0
-445 -443 0
-445 444 0
446 -443 444 0
-446 443 0
-446 -444 0
447 445 446 0
-447 -445 0
-447 -446 0
448 431 447 0
-448 -431 0
-448 -447 0
449 -353 -411 0
-449 353 0
-449 411 0
450 -448 -449 0
-450 448 0
-450 449 0
451 -64 450 0
-451 64 0
-451 -450 0
452 64 -450 0
-452 -64 0
-452 450 0
453 451 452 0
-453 -451 0
-453 -452 0
454 -307 453 0
-454 307 0
-454 -453 0
455 327 352 0
-455 -327 0
-455 -352 0
456 431 -447 0
-456 -431 0
-456 447 0
457 -307 -411 0
-457 307 0
-457 411 0
458 -456 -457 0
-458 456 0
-458 457 0
459 -455 -458 0
-459 455 0
-459 458 0
460 -63 459 0
-460 63 0
-460 -459 0
461 63 -459 0
-461 -63 0
-461 459 0
462 460 461 0
-462 -460 0
-462 -461 0
463 -327 352 0
-463 327 0
-463 -352 0
464 -307 -463 0
-464 307 0
-464 463 0
465 -431 447 0
-465 431 0
-465 -447 0
466 383 386 0
-466 -383 0
-466 -386 0
467 -410 -466 0
-467 410 0
-467 466 0
468 -465 -467 0
-468 465 0
-468 467 0
469 -61 -468 0
-469 61 0
-469 468 0
470 61 468 0
-470 -61 0
-470 -468 0
471 -464 469 0
-471 464 0
-471 -469 0
472 470 -471 0
-472 -470 0
-472 471 0
473 -307 -448 0
-473 307 0
-473 448 0
474 -467 -473 0
-474 467 0
-474 473 0
475 -455 -474 0
-475 455 0
-475 474 0
476 -327 -352 0
-476 327 0
-476 352 0
477 -458 -476 0
-477 458 0
-477 476 0
478 -474 -476 0
-478 474 0
-478 476 0
479 -431 -447 0
-479 431 0
-479 447 0
480 -463 -479 0
-480 463 0
-480 479 0
481 -457 -480 0
-481 457 0
-481 480 0
482 -456 -467 0
-482 456 0
-482 467 0
483 -464 -482 0
-483 464 0
-483 482 0
484 481 483 0
-484 -481 0
-484 -483 0
485 475 -484 0
-485 -475 0
-485 484 0
486 477 478 0
-486 -477 0
-486 -478 0
487 -485 -486 0
-487 485 0
-487 486 0
488 472 -487 0
-488 -472 0
-488 487 0
489 454 -462 0
-489 -454 0
-489 462 0
490 -488 -489 0
-490 488 0
-490 489 0
491 33 490 0
-491 -33 0
-491 -490 0
492 85 390 0
-492 -85 0
-492 -390 0
493 491 -492 0
-493 -491 0
-493 492 0
494 -390 -491 0
-494 390 0
-494 491 0
495 493 494 0
-495 -493 0
-495 -494 0
496 79 495 0
-496 -79 0
-496 -495 0
497 80 -496 0
-497 -80 0
-497 496 0
498 -80 496 0
-498 80 0
-498 -496 0
499 497 498 0
-499 -497 0
-499 -498 0
500 -79 -495 0
-500 79 0
-500 495 0
501 109 500 0
-501 -109 0
-501 -500 0
502 -499 -501 0
-502 499 0
-502 501 0
503 499 501 0
-503 -499 0
-503 -501 0
504 502 503 0
-504 -502 0
-504 -503 0
505 -300 504 0
-505 300 0
-505 -504 0
506 32 -33 0
-506 -32 0
-506 33 0
507 30 -33 0
-507 -30 0
-507 33 0
508 -111 -507 0
-508 111 0
-508 507 0
509 114 508 0
-509 -114 0
-509 -508 0
510 -170 509 0
-510 170 0
-510 -509 0
511 245 -260 0
-511 -245 0
-511 260 0
512 -272 -511 0
-512 272 0
-512 511 0
513 -225 -512 0
-513 225 0
-513 512 0
514 -510 -513 0
-514 510 0
-514 513 0
515 -270 509 0
-515 270 0
-515 -509 0
516 -276 -515 0
-516 276 0
-516 515 0
517 -512 -516 0
-517 512 0
-517 516 0
518 -269 -510 0
-518 269 0
-518 510 0
519 -512 -518 0
-519 512 0
-519 518 0
520 -266 509 0
-520 266 0
-520 -509 0
521 -513 -520 0
-521 513 0
-521 520 0
522 -285 509 0
-522 285 0
-522 -509 0
523 -279 -522 0
-523 279 0
-523 522 0
524 -263 -518 0
-524 263 0
-524 518 0
525 -273 -276 0
-525 273 0
-525 276 0
526 -520 -525 0
-526 520 0
-526 525 0
527 -510 -525 0
-527 510 0
-527 525 0
528 514 517 0
-528 -514 0
-528 -517 0
529 519 521 0
-529 -519 0
-529 -521 0
530 523 524 0
-530 -523 0
-530 -524 0
531 526 527 0
-531 -526 0
-531 -527 0
532 -530 -531 0
-532 530 0
-532 531 0
533 -528 -529 0
-533 528 0
-533 529 0
534 -532 -533 0
-534 532 0
-534 533 0
535 -295 -534 0
-535 295 0
-535 534 0
536 -31 535 0
-536 31 0
-536 -535 0
537 -17 -536 0
-537 17 0
-537 536 0
538 -256 -537 0
-538 256 0
-538 537 0
539 256 537 0
-539 -256 0
-539 -537 0
540 506 538 0
-540 -506 0
-540 -538 0
541 539 -540 0
-541 -539 0
-541 540 0
542 -73 541 0
-542 73 0
-542 -541 0
543 73 -541 0
-543 -73 0
-543 541 0
544 542 543 0
-544 -542 0
-544 -543 0
545 72 506 0
-545 -72 0
-545 -506 0
546 -72 -506 0
-546 72 0
-546 506 0
547 545 546 0
-547 -545 0
-547 -546 0
548 303 508 0
-548 -303 0
-548 -508 0
549 -476 548 0
-549 476 0
-549 -548 0
550 -467 -479 0
-550 467 0
-550 479 0
551 -549 -550 0
-551 549 0
-551 550 0
552 245 -409 0
-552 -245 0
-552 409 0
553 -466 -552 0
-553 466 0
-553 552 0
554 -465 -549 0
-554 465 0
-554 549 0
555 -553 -554 0
-555 553 0
-555 554 0
556 -353 548 0
-556 353 0
-556 -548 0
557 -482 -556 0
-557 482 0
-557 556 0
558 -455 548 0
-558 455 0
-558 -548 0
559 -456 -553 0
-559 456 0
-559 553 0
560 -65 559 0
-560 65 0
-560 -559 0
561 65 -559 0
-561 -65 0
-561 559 0
562 560 561 0
-562 -560 0
-562 -561 0
563 -558 562 0
-563 558 0
-563 -562 0
564 -550 -558 0
-564 550 0
-564 558 0
565 -411 -465 0
-565 411 0
-565 465 0
566 -549 -565 0
-566 549 0
-566 565 0
567 -549 562 0
-567 549 0
-567 -562 0
568 564 566 0
-568 -564 0
-568 -566 0
569 563 -568 0
-569 -563 0
-569 568 0
570 567 -569 0
-570 -567 0
-570 569 0
571 -67 570 0
-571 67 0
-571 -570 0
572 67 -570 0
-572 -67 0
-572 570 0
573 571 572 0
-573 -571 0
-573 -572 0
574 -480 -553 0
-574 480 0
-574 553 0
575 -66 -574 0
-575 66 0
-575 574 0
576 66 574 0
-576 -66 0
-576 -574 0
577 548 575 0
-577 -548 0
-577 -575 0
578 576 -577 0
-578 -576 0
-578 577 0
579 551 555 0
-579 -551 0
-579 -555 0
580 557 -579 0
-580 -557 0
-580 579 0
581 578 -580 0
-581 -578 0
-581 580 0
582 573 -581 0
-582 -573 0
-582 581 0
583 -490 -582 0
-583 490 0
-583 582 0
584 -31 -400 0
-584 31 0
-584 400 0
585 583 -584 0
-585 -583 0
-585 584 0
586 -396 585 0
-586 396 0
-586 -585 0
587 396 -585 0
-587 -396 0
-587 585 0
588 586 587 0
-588 -586 0
-588 -587 0
589 547 588 0
-589 -547 0
-589 -588 0
590 -544 -589 0
-590 544 0
-590 589 0
591 -523 557 0
-591 523 0
-591 -557 0
592 10 -62 0
-592 -10 0
-592 62 0
593 564 -592 0
-593 -564 0
-593 592 0
594 62 -564 0
-594 -62 0
-594 564 0
595 593 594 0
-595 -593 0
-595 -594 0
596 -526 595 0
-596 526 0
-596 -595 0
597 526 -595 0
-597 -526 0
-597 595 0
598 596 597 0
-598 -596 0
-598 -597 0
599 278 481 0
-599 -278 0
-599 -481 0
600 -278 -481 0
-600 278 0
-600 481 0
601 599 600 0
-601 -599 0
-601 -600 0
602 -59 483 0
-602 59 0
-602 -483 0
603 59 -483 0
-603 -59 0
-603 483 0
604 602 603 0
-604 -602 0
-604 -603 0
605 -280 -604 0
-605 280 0
-605 604 0
606 280 604 0
-606 -280 0
-606 -604 0
607 268 462 0
-607 -268 0
-607 -462 0
608 -283 478 0
-608 283 0
-608 -478 0
609 265 -477 0
-609 -265 0
-609 477 0
610 -265 477 0
-610 265 0
-610 -477 0
611 524 566 0
-611 -524 0
-611 -566 0
612 -524 -566 0
-612 524 0
-612 566 0
613 611 612 0
-613 -611 0
-613 -612 0
614 3 284 0
-614 -3 0
-614 -284 0
615 -3 -284 0
-615 3 0
-615 284 0
616 614 615 0
-616 -614 0
-616 -615 0
617 3 -60 0
-617 -3 0
-617 60 0
618 475 617 0
-618 -475 0
-618 -617 0
619 -3 60 0
-619 3 0
-619 -60 0
620 618 -619 0
-620 -618 0
-620 619 0
621 -618 619 0
-621 618 0
-621 -619 0
622 620 621 0
-622 -620 0
-622 -621 0
623 -616 622 0
-623 616 0
-623 -622 0
624 616 -622 0
-624 -616 0
-624 622 0
625 288 454 0
-625 -288 0
-625 -454 0
626 -288 -454 0
-626 288 0
-626 454 0
627 625 626 0
-627 -625 0
-627 -626 0
628 521 -563 0
-628 -521 0
-628 563 0
629 -521 563 0
-629 521 0
-629 -563 0
630 514 -567 0
-630 -514 0
-630 567 0
631 -268 -462 0
-631 268 0
-631 462 0
632 -275 472 0
-632 275 0
-632 -472 0
633 -514 567 0
-633 514 0
-633 -567 0
634 275 -472 0
-634 -275 0
-634 472 0
635 283 -478 0
-635 -283 0
-635 478 0
636 -517 578 0
-636 517 0
-636 -578 0
637 -527 551 0
-637 527 0
-637 -551 0
638 527 -551 0
-638 -527 0
-638 551 0
639 519 -555 0
-639 -519 0
-639 555 0
640 517 -578 0
-640 -517 0
-640 578 0
641 -519 555 0
-641 519 0
-641 -555 0
642 523 -557 0
-642 -523 0
-642 557 0
643 -387 -552 0
-643 387 0
-643 552 0
644 -448 -643 0
-644 448 0
-644 643 0
645 -463 -644 0
-645 463 0
-645 644 0
646 411 553 0
-646 -411 0
-646 -553 0
647 -448 646 0
-647 448 0
-647 -646 0
648 -245 448 0
-648 245 0
-648 -448 0
649 245 465 0
-649 -245 0
-649 -465 0
650 -387 -409 0
-650 387 0
-650 409 0
651 648 -650 0
-651 -648 0
-651 650 0
652 649 -651 0
-652 -649 0
-652 651 0
653 -383 -386 0
-653 383 0
-653 386 0
654 -552 -653 0
-654 552 0
-654 653 0
655 69 654 0
-655 -69 0
-655 -654 0
656 -69 -654 0
-656 69 0
-656 654 0
657 -448 655 0
-657 448 0
-657 -655 0
658 656 -657 0
-658 -656 0
-658 657 0
659 -70 658 0
-659 70 0
-659 -658 0
660 70 -658 0
-660 -70 0
-660 658 0
661 647 652 0
-661 -647 0
-661 -652 0
662 659 -661 0
-662 -659 0
-662 661 0
663 660 -662 0
-663 -660 0
-663 662 0
664 -463 663 0
-664 463 0
-664 -663 0
665 353 463 0
-665 -353 0
-665 -463 0
666 -644 -665 0
-666 644 0
-666 665 0
667 664 666 0
-667 -664 0
-667 -666 0
668 -303 667 0
-668 303 0
-668 -667 0
669 -303 -463 0
-669 303 0
-669 463 0
670 -456 -669 0
-670 456 0
-670 669 0
671 -643 -670 0
-671 643 0
-671 670 0
672 68 671 0
-672 -68 0
-672 -671 0
673 -68 -671 0
-673 68 0
-673 671 0
674 672 673 0
-674 -672 0
-674 -673 0
675 668 674 0
-675 -668 0
-675 -674 0
676 -583 -675 0
-676 583 0
-676 675 0
677 -71 676 0
-677 71 0
-677 -676 0
678 71 -676 0
-678 -71 0
-678 676 0
679 -32 677 0
-679 32 0
-679 -677 0
680 678 -679 0
-680 -678 0
-680 679 0
681 33 645 0
-681 -33 0
-681 -645 0
682 680 -681 0
-682 -680 0
-682 681 0
683 -242 -260 0
-683 242 0
-683 260 0
684 243 245 0
-684 -243 0
-684 -245 0
685 -683 -684 0
-685 683 0
-685 684 0
686 -270 -281 0
-686 270 0
-686 281 0
687 -685 -686 0
-687 685 0
-687 686 0
688 263 512 0
-688 -263 0
-688 -512 0
689 -270 688 0
-689 270 0
-689 -688 0
690 -243 -245 0
-690 243 0
-690 245 0
691 684 690 0
-691 -684 0
-691 -690 0
692 -270 -691 0
-692 270 0
-692 691 0
693 270 -684 0
-693 -270 0
-693 684 0
694 285 -693 0
-694 -285 0
-694 693 0
695 692 694 0
-695 -692 0
-695 -694 0
696 -683 695 0
-696 683 0
-696 -695 0
697 689 696 0
-697 -689 0
-697 -696 0
698 -281 697 0
-698 281 0
-698 -697 0
699 -270 276 0
-699 270 0
-699 -276 0
700 281 -699 0
-700 -281 0
-700 699 0
701 -685 -700 0
-701 685 0
-701 700 0
702 698 701 0
-702 -698 0
-702 -701 0
703 110 702 0
-703 -110 0
-703 -702 0
704 -535 703 0
-704 535 0
-704 -703 0
705 -32 704 0
-705 32 0
-705 -704 0
706 33 687 0
-706 -33 0
-706 -687 0
707 705 -706 0
-707 -705 0
-707 706 0
708 682 707 0
-708 -682 0
-708 -707 0
709 -682 -707 0
-709 682 0
-709 707 0
710 708 709 0
-710 -708 0
-710 -709 0
711 544 589 0
-711 -544 0
-711 -589 0
712 -28 -31 0
-712 28 0
-712 31 0
713 583 -712 0
-713 -583 0
-713 712 0
714 323 713 0
-714 -323 0
-714 -713 0
715 -323 -713 0
-715 323 0
-715 713 0
716 714 715 0
-716 -714 0
-716 -715 0
717 547 716 0
-717 -547 0
-717 -716 0
718 -28 -536 0
-718 28 0
-718 536 0
719 135 -718 0
-719 -135 0
-719 718 0
720 -135 718 0
-720 135 0
-720 -718 0
721 506 719 0
-721 -506 0
-721 -719 0
722 720 -721 0
-722 -720 0
-722 721 0
723 717 722 0
-723 -717 0
-723 -722 0
724 -717 -722 0
-724 717 0
-724 722 0
725 723 724 0
-725 -723 0
-725 -724 0
726 300 -504 0
-726 -300 0
-726 504 0
727 33 582 0
-727 -33 0
-727 -582 0
728 -43 434 0
-728 43 0
-728 -434 0
729 43 -434 0
-729 -43 0
-729 434 0
730 728 729 0
-730 -728 0
-730 -729 0
731 -150 -730 0
-731 150 0
-731 730 0
732 150 730 0
-732 -150 0
-732 -730 0
733 731 732 0
-733 -731 0
-733 -732 0
734 -727 -733 0
-734 727 0
-734 733 0
735 507 733 0
-735 -507 0
-735 -733 0
736 727 -735 0
-736 -727 0
-736 735 0
737 81 -736 0
-737 -81 0
-737 736 0
738 -81 736 0
-738 81 0
-738 -736 0
739 734 737 0
-739 -734 0
-739 -737 0
740 738 -739 0
-740 -738 0
-740 739 0
741 33 534 0
-741 -33 0
-741 -534 0
742 -150 214 0
-742 150 0
-742 -214 0
743 150 -214 0
-743 -150 0
-743 214 0
744 742 743 0
-744 -742 0
-744 -743 0
745 507 -744 0
-745 -507 0
-745 744 0
746 741 -745 0
-746 -741 0
-746 745 0
747 -741 744 0
-747 741 0
-747 -744 0
748 746 747 0
-748 -746 0
-748 -747 0
749 -740 748 0
-749 740 0
-749 -748 0
750 740 -748 0
-750 -740 0
-750 748 0
751 -27 -31 0
-751 27 0
-751 31 0
752 583 -751 0
-752 -583 0
-752 751 0
753 346 -752 0
-753 -346 0
-753 752 0
754 -346 752 0
-754 346 0
-754 -752 0
755 753 754 0
-755 -753 0
-755 -754 0
756 547 755 0
-756 -547 0
-756 -755 0
757 -76 756 0
-757 76 0
-757 -756 0
758 76 -756 0
-758 -76 0
-758 756 0
759 757 758 0
-759 -757 0
-759 -758 0
760 535 -751 0
-760 -535 0
-760 751 0
761 -165 -760 0
-761 165 0
-761 760 0
762 165 760 0
-762 -165 0
-762 -760 0
763 506 761 0
-763 -506 0
-763 -761 0
764 762 -763 0
-764 -762 0
-764 763 0
765 -759 -764 0
-765 759 0
-765 764 0
766 759 764 0
-766 -759 0
-766 -764 0
767 -25 -31 0
-767 25 0
-767 31 0
768 583 -767 0
-768 -583 0
-768 767 0
769 -74 -379 0
-769 74 0
-769 379 0
770 74 379 0
-770 -74 0
-770 -379 0
771 769 770 0
-771 -769 0
-771 -770 0
772 768 -771 0
-772 -768 0
-772 771 0
773 -768 771 0
-773 768 0
-773 -771 0
774 547 772 0
-774 -547 0
-774 -772 0
775 773 -774 0
-775 -773 0
-775 774 0
776 -25 -536 0
-776 25 0
-776 536 0
777 238 776 0
-777 -238 0
-777 -776 0
778 -238 -776 0
-778 238 0
-778 776 0
779 506 777 0
-779 -506 0
-779 -777 0
780 778 -779 0
-780 -778 0
-780 779 0
781 -75 780 0
-781 75 0
-781 -780 0
782 75 -780 0
-782 -75 0
-782 780 0
783 781 782 0
-783 -781 0
-783 -782 0
784 -775 783 0
-784 775 0
-784 -783 0
785 775 -783 0
-785 -775 0
-785 783 0
786 784 785 0
-786 -784 0
-786 -785 0
787 78 424 0
-787 -78 0
-787 -424 0
788 -31 -173 0
-788 31 0
-788 173 0
789 583 -788 0
-789 -583 0
-789 788 0
790 77 789 0
-790 -77 0
-790 -789 0
791 -77 -789 0
-791 77 0
-791 789 0
792 790 791 0
-792 -790 0
-792 -791 0
793 -787 792 0
-793 787 0
-793 -792 0
794 -78 -424 0
-794 78 0
-794 424 0
795 787 794 0
-795 -787 0
-795 -794 0
796 -792 -795 0
-796 792 0
-796 795 0
797 547 793 0
-797 -547 0
-797 -793 0
798 796 -797 0
-798 -796 0
-798 797 0
799 -173 -536 0
-799 173 0
-799 536 0
800 190 -799 0
-800 -190 0
-800 799 0
801 -190 799 0
-801 190 0
-801 -799 0
802 506 800 0
-802 -506 0
-802 -800 0
803 801 -802 0
-803 -801 0
-803 802 0
804 798 803 0
-804 -798 0
-804 -803 0
805 -798 -803 0
-805 798 0
-805 803 0
806 804 805 0
-806 -804 0
-806 -805 0
807 -26 -31 0
-807 26 0
-807 31 0
808 583 -807 0
-808 -583 0
-808 807 0
809 -82 437 0
-809 82 0
-809 -437 0
810 82 -437 0
-810 -82 0
-810 437 0
811 809 810 0
-811 -809 0
-811 -810 0
812 -808 -811 0
-812 808 0
-812 811 0
813 808 811 0
-813 -808 0
-813 -811 0
814 812 813 0
-814 -812 0
-814 -813 0
815 83 814 0
-815 -83 0
-815 -814 0
816 199 -815 0
-816 -199 0
-816 815 0
817 -83 -814 0
-817 83 0
-817 814 0
818 -199 815 0
-818 199 0
-818 -815 0
819 817 -818 0
-819 -817 0
-819 818 0
820 547 816 0
-820 -547 0
-820 -816 0
821 819 -820 0
-821 -819 0
-821 820 0
822 -26 -536 0
-822 26 0
-822 536 0
823 220 -822 0
-823 -220 0
-823 822 0
824 -220 822 0
-824 220 0
-824 -822 0
825 506 823 0
-825 -506 0
-825 -823 0
826 824 -825 0
-826 -824 0
-826 825 0
827 -821 826 0
-827 821 0
-827 -826 0
828 821 -826 0
-828 -821 0
-828 826 0
829 591 637 0
-829 -591 0
-829 -637 0
830 638 639 0
-830 -638 0
-830 -639 0
831 641 642 0
-831 -641 0
-831 -642 0
832 -830 -831 0
-832 830 0
-832 831 0
833 601 -829 0
-833 -601 0
-833 829 0
834 608 609 0
-834 -608 0
-834 -609 0
835 610 613 0
-835 -610 0
-835 -613 0
836 635 -835 0
-836 -635 0
-836 835 0
837 -833 -834 0
-837 833 0
-837 834 0
838 605 -832 0
-838 -605 0
-838 832 0
839 606 628 0
-839 -606 0
-839 -628 0
840 629 630 0
-840 -629 0
-840 -630 0
841 632 633 0
-841 -632 0
-841 -633 0
842 634 -841 0
-842 -634 0
-842 841 0
843 -839 -840 0
-843 839 0
-843 840 0
844 -837 -838 0
-844 837 0
-844 838 0
845 598 -836 0
-845 -598 0
-845 836 0
846 607 631 0
-846 -607 0
-846 -631 0
847 636 640 0
-847 -636 0
-847 -640 0
848 -846 -847 0
-848 846 0
-848 847 0
849 -844 -845 0
-849 844 0
-849 845 0
850 -842 -843 0
-850 842 0
-850 843 0
851 623 624 0
-851 -623 0
-851 -624 0
852 627 -851 0
-852 -627 0
-852 851 0
853 -849 -850 0
-853 849 0
-853 850 0
854 -848 -853 0
-854 848 0
-854 853 0
855 -852 -854 0
-855 852 0
-855 854 0
856 590 -855 0
-856 -590 0
-856 855 0
857 711 749 0
-857 -711 0
-857 -749 0
858 750 -857 0
-858 -750 0
-858 857 0
859 505 -856 0
-859 -505 0
-859 856 0
860 725 726 0
-860 -725 0
-860 -726 0
861 786 -860 0
-861 -786 0
-861 860 0
862 -858 -859 0
-862 858 0
-862 859 0
863 710 765 0
-863 -710 0
-863 -765 0
864 766 -863 0
-864 -766 0
-864 863 0
865 -861 -862 0
-865 861 0
-865 862 0
866 806 827 0
-866 -806 0
-866 -827 0
867 828 -866 0
-867 -828 0
-867 866 0
868 -864 -865 0
-868 864 0
-868 865 0
869 -867 -868 0
-869 867 0
-869 868 0
84 869 0
-84 -869 0
84 0
34 -870 -1020 0
-34 870 0
-34 1020 0
1020 -871 -872 0
-1020 871 0
-1020 872 0
35 -873 -1021 0
-35 873 0
-35 1021 0
1021 -874 -875 0
-1021 874 0
-1021 875 0
36 -876 -1022 0
-36 876 0
-36 1022 0
1022 -877 -878 0
-1022 877 0
-1022 878 0
37 -879 -1023 0
-37 879 0
-37 1023 0
1023 -880 -881 0
-1023 880 0
-1023 881 0
38 -882 -1024 0
-38 882 0
-38 1024 0
1024 -883 -884 0
-1024 883 0
-1024 884 0
39 -885 -1025 0
-39 885 0
-39 1025 0
1025 -886 -887 0
-1025 886 0
-1025 887 0
40 -888 -1026 0
-40 888 0
-40 1026 0
1026 -889 -890 0
-1026 889 0
-1026 890 0
41 -891 -1027 0
-41 891 0
-41 1027 0
1027 -892 -893 0
-1027 892 0
-1027 893 0
42 -894 -1028 0
-42 894 0
-42 1028 0
1028 -895 -896 0
-1028 895 0
-1028 896 0
43 -897 -1029 0
-43 897 0
-43 1029 0
1029 -898 -899 0
-1029 898 0
-1029 899 0
44 -900 -1030 0
-44 900 0
-44 1030 0
1030 -901 -902 0
-1030 901 0
-1030 902 0
45 -903 -1031 0
-45 903 0
-45 1031 0
1031 -904 -905 0
-1031 904 0
-1031 905 0
46 -906 -1032 0
-46 906 0
-46 1032 0
1032 -907 -908 0
-1032 907 0
-1032 908 0
47 -909 -1033 0
-47 909 0
-47 1033 0
1033 -910 -911 0
-1033 910 0
-1033 911 0
48 -912 -1034 0
-48 912 0
-48 1034 0
1034 -913 -914 0
-1034 913 0
-1034 914 0
49 -915 -1035 0
-49 915 0
-49 1035 0
1035 -916 -917 0
-1035 916 0
-1035 917 0
50 -918 -1036 0
-50 918 0
-50 1036 0
1036 -919 -920 0
-1036 919 0
-1036 920 0
51 -921 -1037 0
-51 921 0
-51 1037 0
1037 -922 -923 0
-1037 922 0
-1037 923 0
52 -924 -1038 0
-52 924 0
-52 1038 0
1038 -925 -926 0
-1038 925 0
-1038 926 0
53 -927 -1039 0
-53 927 0
-53 1039 0
1039 -928 -929 0
-1039 928 0
-1039 929 0
54 -930 -1040 0
-54 930 0
-54 1040 0
1040 -931 -932 0
-1040 931 0
-1040 932 0
55 -933 -1041 0
-55 933 0
-55 1041 0
1041 -934 -935 0
-1041 934 0
-1041 935 0
56 -936 -1042 0
-56 936 0
-56 1042 0
1042 -937 -938 0
-1042 937 0
-1042 938 0
57 -939 -1043 0
-57 939 0
-57 1043 0
1043 -940 -941 0
-1043 940 0
-1043 941 0
58 -942 -1044 0
-58 942 0
-58 1044 0
1044 -943 -944 0
-1044 943 0
-1044 944 0
59 -945 -1045 0
-59 945 0
-59 1045 0
1045 -946 -947 0
-1045 946 0
-1045 947 0
60 -948 -1046 0
-60 948 0
-60 1046 0
1046 -949 -950 0
-1046 949 0
-1046 950 0
61 -951 -1047 0
-61 951 0
-61 1047 0
1047 -952 -953 0
-1047 952 0
-1047 953 0
62 -954 -1048 0
-62 954 0
-62 1048 0
1048 -955 -956 0
-1048 955 0
-1048 956 0
63 -957 -1049 0
-63 957 0
-63 1049 0
1049 -958 -959 0
-1049 958 0
-1049 959 0
64 -960 -1050 0
-64 960 0
-64 1050 0
1050 -961 -962 0
-1050 961 0
-1050 962 0
65 -963 -1051 0
-65 963 0
-65 1051 0
1051 -964 -965 0
-1051 964 0
-1051 965 0
66 -966 -1052 0
-66 966 0
-66 1052 0
1052 -967 -968 0
-1052 967 0
-1052 968 0
67 -969 -1053 0
-67 969 0
-67 1053 0
1053 -970 -971 0
-1053 970 0
-1053 971 0
68 -972 -1054 0
-68 972 0
-68 1054 0
1054 -973 -974 0
-1054 973 0
-1054 974 0
69 -975 -1055 0
-69 975 0
-69 1055 0
1055 -976 -977 0
-1055 976 0
-1055 977 0
70 -978 -1056 0
-70 978 0
-70 1056 0
1056 -979 -980 0
-1056 979 0
-1056 980 0
71 -981 -1057 0
-71 981 0
-71 1057 0
1057 -982 -983 0
-1057 982 0
-1057 983 0
72 -984 -1058 0
-72 984 0
-72 1058 0
1058 -985 -986 0
-1058 985 0
-1058 986 0
73 -987 -1059 0
-73 987 0
-73 1059 0
1059 -988 -989 0
-1059 988 0
-1059 989 0
74 -990 -1060 0
-74 990 0
-74 1060 0
1060 -991 -992 0
-1060 991 0
-1060 992 0
75 -993 -1061 0
-75 993 0
-75 1061 0
1061 -994 -995 0
-1061 994 0
-1061 995 0
76 -996 -1062 0
-76 996 0
-76 1062 0
1062 -997 -998 0
-1062 997 0
-1062 998 0
77 -999 -1063 0
-77 999 0
-77 1063 0
1063 -1000 -1001 0
-1063 1000 0
-1063 1001 0
78 -1002 -1064 0
-78 1002 0
-78 1064 0
1064 -1003 -1004 0
-1064 1003 0
-1064 1004 0
79 -1005 -1065 0
-79 1005 0
-79 1065 0
1065 -1006 -1007 0
-1065 1006 0
-1065 1007 0
80 -1008 -1066 0
-80 1008 0
-80 1066 0
1066 -1009 -1010 0
-1066 1009 0
-1066 1010 0
81 -1011 -1067 0
-81 1011 0
-81 1067 0
1067 -1012 -1013 0
-1067 1012 0
-1067 1013 0
82 -1014 -1068 0
-82 1014 0
-82 1068 0
1068 -1015 -1016 0
-1068 1015 0
-1068 1016 0
83 -1017 -1069 0
-83 1017 0
-83 1069 0
1069 -1018 -1019 0
-1069 1018 0
-1069 1019 0
